539,360
769,285
736,235
727,110
1045,142
776,219
738,388
269,705
494,501
681,16
672,434
708,459
745,605
755,634
945,770
1081,610
1006,457
937,489
948,542
450,860
681,706
521,487
716,454
740,415
1137,554
880,470
858,753
1020,745
